NAME: mydataset
TYPE: TSP
COMMENT: 4 cities , street distances
DIMENSION: 4
EDGE_WEIGHT_TYPE: EXPLICIT
EDGE_WEIGHT_FORMAT: FULL_MATRIX 
DISPLAY_DATA_TYPE: TWOD_DISPLAY
EDGE_WEIGHT_SECTION
   0 4 1 3   
   4 0 2 1  
   1 2 0 5  
   3 1 5 0    
DISPLAY_DATA_SECTION
   1    1150.0  1760.0
   2     630.0  1660.0
   3      40.0  2090.0
   4     750.0  1100.0  
EOF
